NAME : compression
TYPE : TSP
DIMENSION : 50
EDGE_WEIGHT_TYPE : EUC_2D
NODE_COORD_SECTION
1 448660 839184
2 575532 272415
3 833939 428318
4 343164 583605
5 764799 213156
6 177341 639958
7 845046 419064
8 843021 351672
9 409407 535047
10 906475 709418
11 358889 173431
12 969876 2946
13 495376 258201
14 267243 299173
15 745901 457106
16 899768 711678
17 203678 306471
18 184895 274023
19 305709 635070
20 964752 748831
21 635612 464360
22 513396 726528
23 720009 465572
24 670969 173639
25 916184 387301
26 181563 923733
27 124776 478616
28 918150 715175
29 507537 242668
30 347446 673494
31 800229 422880
32 219969 358995
33 15175 664835
34 186399 290555
35 524389 662500
36 382164 212319
37 238130 343440
38 445531 840481
39 941812 361437
40 245660 326712
41 132360 203552
42 495938 907375
43 254390 315741
44 774856 447637
45 122116 139018
46 453413 881989
47 196850 388047
48 413181 608893
49 221604 936792
50 685899 476726
EOF
